data/CVRPLIB/Vrp-Set-XML100/instances/XML100_3212_03.vrp
NAME : XML100_3212_03
COMMENT : Generated by Queiroga, Sadykov, Uchoa, and Vidal (2021)
TYPE : CVRP
DIMENSION : 101
EDGE_WEIGHT_TYPE : EUC_2D
CAPACITY : 6
NODE_COORD_SECTION
1    0    0   
2    450  656 
3    355  738 
4    370  822 
5    345  612 
6    411  620 
7    422  632 
8    998  741 
9    606  475 
10   507  853 
11   78   932 
12   180  916 
13   300  824 
14   177  949 
15   948  685 
16   208  836 
17   442  598 
18   193  933 
19   419  700 
20   332  656 
21   147  865 
22   238  895 
23   374  807 
24   335  665 
25   210  807 
26   865  650 
27   742  430 
28   970  606 
29   192  894 
30   223  927 
31   276  897 
32   878  643 
33   344  715 
34   272  875 
35   203  927 
36   436  671 
37   350  750 
38   403  667 
39   276  651 
40   401  706 
41   232  944 
42   921  598 
43   926  623 
44   934  543 
45   215  943 
46   240  883 
47   648  624 
48   854  693 
49   952  467 
50   368  640 
51   400  757 
52   330  673 
53   203  760 
54   211  908 
55   249  862 
56   967  762 
57   388  840 
58   860  695 
59   982  473 
60   936  636 
61   727  443 
62   168  912 
63   594  663 
64   303  475 
65   284  990 
66   873  579 
67   392  702 
68   162  844 
69   987  712 
70   302  660 
71   365  811 
72   981  761 
73   397  706 
74   340  632 
75   384  857 
76   374  689 
77   938  627 
78   298  665 
79   723  719 
80   40   700 
81   851  732 
82   898  699 
83   957  659 
84   100  765 
85   257  952 
86   413  776 
87   163  841 
88   947  762 
89   443  928 
90   254  642 
91   254  814 
92   930  715 
93   310  654 
94   98   855 
95   955  612 
96   968  668 
97   471  614 
98   182  906 
99   897  698 
100  264  939 
101  308  816 
DEMAND_SECTION
1    0   
2    1   
3    1   
4    1   
5    1   
6    1   
7    1   
8    1   
9    1   
10   1   
11   1   
12   1   
13   1   
14   1   
15   1   
16   1   
17   1   
18   1   
19   1   
20   1   
21   1   
22   1   
23   1   
24   1   
25   1   
26   1   
27   1   
28   1   
29   1   
30   1   
31   1   
32   1   
33   1   
34   1   
35   1   
36   1   
37   1   
38   1   
39   1   
40   1   
41   1   
42   1   
43   1   
44   1   
45   1   
46   1   
47   1   
48   1   
49   1   
50   1   
51   1   
52   1   
53   1   
54   1   
55   1   
56   1   
57   1   
58   1   
59   1   
60   1   
61   1   
62   1   
63   1   
64   1   
65   1   
66   1   
67   1   
68   1   
69   1   
70   1   
71   1   
72   1   
73   1   
74   1   
75   1   
76   1   
77   1   
78   1   
79   1   
80   1   
81   1   
82   1   
83   1   
84   1   
85   1   
86   1   
87   1   
88   1   
89   1   
90   1   
91   1   
92   1   
93   1   
94   1   
95   1   
96   1   
97   1   
98   1   
99   1   
100  1   
101  1   
DEPOT_SECTION
1
-1
EOF
