data/CVRPLIB/Vrp-Set-XML100/solutions/XML100_3212_03.sol
Route #1: 91 87 55 71 7 68
Route #2: 52 24 86 67 83 79
Route #3: 5 6 35 1 96 16
Route #4: 93 10 13 17 34 53
Route #5: 49 66 72 39 18 37
Route #6: 12 100 3 70 22 36
Route #7: 42 59 76 94 27 41
Route #8: 56 74 88 9 62 8
Route #9: 29 44 40 84 64 99
Route #10: 20 61 11 97 28 15
Route #11: 60 65 43 58 48 26
Route #12: 54 45 21 30 33 90
Route #13: 25 47 57 80 78 46
Route #14: 92 23 19 73 4 63
Route #15: 51 32 2 85 50 75
Route #16: 98 81 14 95 82 31
Route #17: 69 77 38 89
Cost 33798
